NAME : X_30_seed_123_id_18
TYPE : CVRP
DIMENSION : 237
EDGE_WEIGHT_TYPE : EUC_2D
CAPACITY : 18
NODE_COORD_SECTION
1	0	0
2	478	101
3	722	997
4	428	585
5	635	295
6	432	803
7	277	25
8	488	438
9	840	792
10	600	264
11	146	226
12	985	969
13	335	777
14	315	123
15	69	200
16	824	618
17	896	631
18	638	578
19	113	35
20	307	351
21	741	151
22	378	590
23	876	621
24	170	162
25	484	318
26	186	489
27	60	735
28	913	262
29	206	383
30	324	284
31	859	973
32	273	937
33	730	578
34	341	17
35	382	117
36	380	296
37	774	202
38	235	574
39	751	79
40	378	356
41	565	378
42	408	771
43	808	289
44	715	211
45	468	729
46	241	483
47	233	8
48	270	62
49	793	789
50	428	713
51	535	255
52	454	735
53	598	229
54	177	690
55	594	506
56	843	307
57	15	184
58	536	371
59	197	70
60	430	512
61	944	861
62	361	670
63	517	861
64	374	315
65	533	915
66	61	115
67	768	108
68	503	615
69	71	972
70	852	947
71	526	329
72	850	165
73	336	490
74	816	395
75	575	38
76	962	623
77	931	934
78	366	156
79	586	981
80	29	351
81	409	755
82	31	630
83	795	718
84	680	54
85	217	820
86	508	563
87	909	288
88	287	609
89	110	421
90	160	971
91	263	777
92	987	346
93	636	533
94	695	16
95	353	869
96	830	789
97	294	469
98	206	58
99	554	61
100	601	235
101	615	339
102	875	19
103	478	111
104	530	437
105	347	225
106	130	723
107	333	559
108	891	383
109	337	138
110	626	109
111	223	626
112	846	975
113	88	959
114	350	626
115	436	514
116	700	426
117	134	430
118	649	668
119	896	670
120	794	313
121	498	764
122	606	315
123	145	142
124	959	494
125	116	888
126	543	912
127	562	17
128	637	511
129	815	49
130	204	732
131	824	993
132	448	619
133	846	301
134	697	621
135	509	837
136	225	773
137	717	769
138	837	536
139	397	811
140	762	938
141	118	176
142	980	785
143	806	417
144	460	973
145	441	597
146	580	90
147	279	437
148	352	972
149	822	292
150	952	629
151	622	703
152	164	498
153	212	165
154	366	428
155	79	896
156	163	27
157	904	591
158	547	307
159	735	141
160	597	463
161	136	352
162	908	928
163	63	664
164	453	705
165	676	838
166	743	568
167	789	888
168	255	324
169	700	604
170	704	888
171	618	900
172	82	369
173	706	199
174	740	390
175	100	790
176	100	407
177	236	95
178	573	448
179	435	173
180	32	477
181	847	132
182	624	892
183	536	560
184	939	537
185	933	47
186	819	831
187	300	694
188	47	779
189	478	272
190	849	863
191	346	453
192	859	243
193	360	94
194	405	826
195	411	112
196	739	496
197	520	839
198	865	331
199	365	606
200	611	1000
201	437	262
202	230	755
203	775	598
204	468	693
205	410	126
206	652	435
207	552	765
208	240	898
209	19	499
210	650	312
211	252	353
212	299	367
213	833	992
214	902	990
215	731	507
216	105	186
217	104	26
218	592	90
219	973	762
220	396	545
221	857	318
222	793	24
223	880	495
224	0	915
225	270	148
226	91	369
227	610	140
228	595	211
229	899	363
230	638	377
231	571	989
232	862	680
233	387	255
234	446	997
235	688	530
236	652	79
237	19	71
DEMAND_SECTION
1	0
2	1
3	1
4	1
5	1
6	1
7	1
8	1
9	1
10	1
11	1
12	1
13	1
14	1
15	1
16	1
17	1
18	1
19	1
20	1
21	1
22	1
23	1
24	1
25	1
26	1
27	1
28	1
29	1
30	1
31	1
32	1
33	1
34	1
35	1
36	1
37	1
38	1
39	1
40	1
41	1
42	1
43	1
44	1
45	1
46	1
47	1
48	1
49	1
50	1
51	1
52	1
53	1
54	1
55	1
56	1
57	1
58	1
59	1
60	1
61	1
62	1
63	1
64	1
65	1
66	1
67	1
68	1
69	1
70	1
71	1
72	1
73	1
74	1
75	1
76	1
77	1
78	1
79	1
80	1
81	1
82	1
83	1
84	1
85	1
86	1
87	1
88	1
89	1
90	1
91	1
92	1
93	1
94	1
95	1
96	1
97	1
98	1
99	1
100	1
101	1
102	1
103	1
104	1
105	1
106	1
107	1
108	1
109	1
110	1
111	1
112	1
113	1
114	1
115	1
116	1
117	1
118	1
119	1
120	1
121	1
122	1
123	1
124	1
125	1
126	1
127	1
128	1
129	1
130	1
131	1
132	1
133	1
134	1
135	1
136	1
137	1
138	1
139	1
140	1
141	1
142	1
143	1
144	1
145	1
146	1
147	1
148	1
149	1
150	1
151	1
152	1
153	1
154	1
155	1
156	1
157	1
158	1
159	1
160	1
161	1
162	1
163	1
164	1
165	1
166	1
167	1
168	1
169	1
170	1
171	1
172	1
173	1
174	1
175	1
176	1
177	1
178	1
179	1
180	1
181	1
182	1
183	1
184	1
185	1
186	1
187	1
188	1
189	1
190	1
191	1
192	1
193	1
194	1
195	1
196	1
197	1
198	1
199	1
200	1
201	1
202	1
203	1
204	1
205	1
206	1
207	1
208	1
209	1
210	1
211	1
212	1
213	1
214	1
215	1
216	1
217	1
218	1
219	1
220	1
221	1
222	1
223	1
224	1
225	1
226	1
227	1
228	1
229	1
230	1
231	1
232	1
233	1
234	1
235	1
236	1
237	1
DEPOT_SECTION
1
-1
EOF
